1 nb1 o3
   1.00000000000000
     5.4874207514292070   -0.0000000000000610    0.0000000000000000
    -2.7437103757647123    4.7522457720069529    0.0000000000000000
     0.0000000000000000    0.0000000000000000   13.6989690306027008
   Na   Nb   O
     6     6    18
Direct
  0.0000000000000000  0.0000000000000000  0.2728533639952673
  0.0000000000000000  0.0000000000000000  0.7728533469952623
  0.6666666759999984  0.3333333519999968  0.6061867149952676
  0.6666666759999984  0.3333333519999968  0.1061866189952667
  0.3333333519999968  0.6666667029999971  0.9395200489952629
  0.3333333519999968  0.6666667029999971  0.4395200489952629
  0.0000000000000000  0.0000000000000000  0.0145192518269184
  0.0000000000000000  0.0000000000000000  0.5145192378269243
  0.6666666759999984  0.3333333519999968  0.3478526058269225
  0.6666666759999984  0.3333333519999968  0.8478525368269203
  0.3333333519999968  0.6666667029999971  0.6811859048269184
  0.3333333519999968  0.6666667029999971  0.1811859218269234
  0.1039099699246933  0.3369595353096031  0.0837757963925938
  0.6630404656904005  0.7669504646150997  0.0837757963925938
  0.2330495593849022  0.8960900340753071  0.0837757963925938
  0.6630404966903996  0.8960900340753071  0.5837757793925960
  0.2330495543848983  0.3369595353096031  0.5837757793925960
  0.1039099549246956  0.7669504646150997  0.5837757793925960
  0.7705767199246978  0.6702928623096085  0.4171091473925941
  0.3297071766903983  0.1002837986151022  0.4171091473925941
  0.8997162853848977  0.2294233560753014  0.4171091473925941
  0.3297071576903932  0.2294233560753014  0.9171090773925954
  0.8997163153849002  0.6702928623096085  0.9171090773925954
  0.7705767089246933  0.1002837986151022  0.9171090773925954
  0.4372433229246937  0.0036262423096076  0.7504424463925972
  0.9963737716904006  0.4336171626151000  0.7504424463925972
  0.5663829083849024  0.5627567330753038  0.7504424463925972
  0.9963738466903891  0.5627567330753038  0.2504424633925950
  0.5663828753849032  0.0036262423096076  0.2504424633925950
  0.4372433469246957  0.4336171626151000  0.2504424633925950
