na1 nb1 o3
   1.00000000000000
     5.4900707142168557   -0.0000000000000881    0.0000000000000000
    -2.7450353571585842    4.7545407071001753    0.0000000000000000
     0.0000000000000000    0.0000000000000000   13.5750660547770838
   Na   Nb   O
     6     6    18
Direct
  0.0000000000000000  0.0000000000000000  0.2500000000000000
  0.0000000000000000  0.0000000000000000  0.7500000349999993
  0.6666666739999982  0.3333333490000001  0.5833333449999998
  0.6666666739999982  0.3333333490000001  0.0833333449999998
  0.3333333490000001  0.6666666969999966  0.9166666550000002
  0.3333333490000001  0.6666666969999966  0.4166666899999996
  0.0000000000000000  0.0000000000000000  0.0000000000000000
  0.0000000000000000  0.0000000000000000  0.5000000000000000
  0.6666666989999968  0.3333333980000006  0.3333333449999998
  0.6666667590000017  0.3333333490000001  0.8333333100000004
  0.3333333550000006  0.6666667960000012  0.6666666899999996
  0.3333333909999965  0.6666666969999966  0.1666666719999981
  0.0000000140000012  0.5631074429538501  0.2500000000000000
  0.0000000089999972  0.4368926040461503  0.7500000349999993
  0.4368925900461562  0.4368926040461503  0.2500000000000000
  0.5631074339538458  0.5631074429538501  0.7500000349999993
  0.5631074249538486  0.0000000000000000  0.2500000000000000
  0.4368925750461514  0.0000000000000000  0.7500000349999993
  0.6666667060000009  0.8964407909538465  0.5833333449999998
  0.6666666830000025  0.7702259030461533  0.0833333449999998
  0.1035592820461559  0.7702259030461533  0.5833333449999998
  0.2297741289538493  0.8964407909538465  0.0833333449999998
  0.2297741309538495  0.3333333490000001  0.5833333449999998
  0.1035592600461541  0.3333333490000001  0.0833333449999998
  0.3333333400000029  0.2297741179538448  0.9166666550000002
  0.3333333469999999  0.1035592550461502  0.4166666899999996
  0.7702258730461509  0.1035592550461502  0.9166666550000002
  0.8964407709538449  0.2297741179538448  0.4166666899999996
  0.8964407729538451  0.6666666969999966  0.9166666550000002
  0.7702258390461552  0.6666666969999966  0.4166666899999996
